c This file is generated by _findSolu
c Generated on Tue Feb 16 22:17:55 2016
p cnf 93 224
-3 -4 -22 0
3 22 0
4 22 0
-2 -22 -21 0
2 21 0
22 21 0
-22 -5 -23 0
22 23 0
5 23 0
-20 -21 -18 0
20 18 0
21 18 0
-21 -23 -19 0
21 19 0
23 19 0
8 24 0
-8 -24 0
9 25 0
-9 -25 0
1 26 0
-1 -26 0
-1 -24 28 0
1 -28 0
24 -28 0
-26 -24 29 0
26 -29 0
24 -29 0
-6 -8 30 0
6 -30 0
8 -30 0
-7 -8 31 0
7 -31 0
8 -31 0
-28 -25 42 0
28 -42 0
25 -42 0
-29 -9 35 0
29 -35 0
9 -35 0
-30 -25 33 0
30 -33 0
25 -33 0
-31 -9 32 0
31 -32 0
9 -32 0
32 33 -34 0
-32 34 0
-33 34 0
34 35 -36 0
-34 36 0
-35 36 0
42 36 -27 0
-42 27 0
-36 27 0
10 38 0
-10 -38 0
11 39 0
-11 -39 0
3 40 0
-3 -40 0
-3 -38 42 0
3 -42 0
38 -42 0
-40 -38 43 0
40 -43 0
38 -43 0
-6 -10 44 0
6 -44 0
10 -44 0
-7 -10 45 0
7 -45 0
10 -45 0
-42 -39 56 0
42 -56 0
39 -56 0
-43 -11 49 0
43 -49 0
11 -49 0
-44 -39 47 0
44 -47 0
39 -47 0
-45 -11 46 0
45 -46 0
11 -46 0
46 47 -48 0
-46 48 0
-47 48 0
48 49 -50 0
-48 50 0
-49 50 0
56 50 -41 0
-56 41 0
-50 41 0
12 52 0
-12 -52 0
13 53 0
-13 -53 0
4 54 0
-4 -54 0
-4 -52 56 0
4 -56 0
52 -56 0
-54 -52 57 0
54 -57 0
52 -57 0
-6 -12 58 0
6 -58 0
12 -58 0
-7 -12 59 0
7 -59 0
12 -59 0
-56 -53 70 0
56 -70 0
53 -70 0
-57 -13 63 0
57 -63 0
13 -63 0
-58 -53 61 0
58 -61 0
53 -61 0
-59 -13 60 0
59 -60 0
13 -60 0
60 61 -62 0
-60 62 0
-61 62 0
62 63 -64 0
-62 64 0
-63 64 0
70 64 -55 0
-70 55 0
-64 55 0
14 66 0
-14 -66 0
15 67 0
-15 -67 0
5 68 0
-5 -68 0
-5 -66 70 0
5 -70 0
66 -70 0
-68 -66 71 0
68 -71 0
66 -71 0
-6 -14 72 0
6 -72 0
14 -72 0
-7 -14 73 0
7 -73 0
14 -73 0
-70 -67 84 0
70 -84 0
67 -84 0
-71 -15 77 0
71 -77 0
15 -77 0
-72 -67 75 0
72 -75 0
67 -75 0
-73 -15 74 0
73 -74 0
15 -74 0
74 75 -76 0
-74 76 0
-75 76 0
76 77 -78 0
-76 78 0
-77 78 0
84 78 -69 0
-84 69 0
-78 69 0
16 80 0
-16 -80 0
17 81 0
-17 -81 0
83 82 0
-83 -82 0
-83 -80 84 0
83 -84 0
80 -84 0
-82 -80 85 0
82 -85 0
80 -85 0
-6 -16 86 0
6 -86 0
16 -86 0
-7 -16 87 0
7 -87 0
16 -87 0
-84 -81 93 0
84 -93 0
81 -93 0
-85 -17 91 0
85 -91 0
17 -91 0
-86 -81 89 0
86 -89 0
81 -89 0
-87 -17 88 0
87 -88 0
17 -88 0
88 89 -90 0
-88 90 0
-89 90 0
90 91 -92 0
-90 92 0
-91 92 0
93 92 -20 0
-93 20 0
-92 20 0
-27 -41 -55 -69 -83 0
27 83 0
41 83 0
55 83 0
69 83 0
1 0
-2 0
3 0
4 0
-5 0
6 0
-7 0
18 0
-19 0
